Optimizer called with the following parameters:
{'focal_plane_mask': {'field_stop_radius': None,
                      'grayscale': True,
                      'num_pix': 150,
                      'radius': 4.0},
 'image': {'bandwidth': 0.15,
           'contrast': 10,
           'iwa': 3.9,
           'num_wavelengths': 5,
           'owa': 14.0,
           'resolution': 2},
 'instrument': {'inst_name': 'USORT'},
 'lyot_stop': {'alignment_tolerance': 0,
               'filename': 'USORT/LS_USORT_hex_ID0000_OD0990_ovsamp16_N0128.fits',
               'num_lyot_stops': 1},
 'method': {'edge_width_for_prior': 2,
            'ending_scale': 1,
            'force_no_hermitian_symmetry': False,
            'force_no_x_mirror_symmetry': False,
            'force_no_y_mirror_symmetry': False,
            'initial_throughput_estimate': 1,
            'maximize_planet_throughput': True,
            'num_throughput_iterations': 2,
            'starting_scale': 1},
 'pupil': {'N': 128,
           'filename': 'USORT/TelAp_USORT_offaxis_ovsamp16_N0128.fits'},
 'solver': {'crossover': 0,
            'method': 2,
            'num_threads': 0}}

File organization:
{'analysis_dir': '/user/bnickson/GitHub/LUVex_TelAps/aplc_optimization/surveys/usort_offaxis_survey_N0128_telserv3/FPM40_IWA39/analysis',
 'drivers_dir': '/user/bnickson/GitHub/LUVex_TelAps/aplc_optimization/surveys/usort_offaxis_survey_N0128_telserv3/FPM40_IWA39/drivers',
 'input_files_dir': '/user/bnickson/GitHub/LUVex_TelAps/aplc_optimization/masks',
 'log_dir': '/user/bnickson/GitHub/LUVex_TelAps/aplc_optimization/surveys/usort_offaxis_survey_N0128_telserv3/FPM40_IWA39/logs',
 'solution_dir': '/user/bnickson/GitHub/LUVex_TelAps/aplc_optimization/surveys/usort_offaxis_survey_N0128_telserv3/FPM40_IWA39/solutions',
 'survey_dir': '/user/bnickson/GitHub/LUVex_TelAps/aplc_optimization/surveys/usort_offaxis_survey_N0128_telserv3/FPM40_IWA39'}

Telescope pupil:
   Mirror symmetry in x: yes
   Mirror symmetry in y: yes

Lyot stop #0:
   Mirror symmetry in x: yes
Lyot stop #0:
   Mirror symmetry in y: yes

Complete APLC:
   Mirror symmetry in x: yes
   Mirror symmetry in y: yes

Starting optimization at scale 1 with 2726 variables and 2850 constraints.
Creating model...
Set parameter Username
Academic license - for non-commercial use only - expires 2024-10-25
Set parameter Crossover to value 0
Set parameter Method to value 2
Calculating and adding constraints...
Wavelength 1/5; Variable 1000/2726
Wavelength 1/5; Variable 2000/2726
Wavelength 2/5; Variable 1000/2726
Wavelength 2/5; Variable 2000/2726
Wavelength 3/5; Variable 1000/2726
Wavelength 3/5; Variable 2000/2726
Wavelength 4/5; Variable 1000/2726
Wavelength 4/5; Variable 2000/2726
Wavelength 5/5; Variable 1000/2726
Wavelength 5/5; Variable 2000/2726
Start optimization...
Gurobi Optimizer version 10.0.3 build v10.0.3rc0 (linux64)

CPU model: Intel(R) Xeon(R) Gold 6146 CPU @ 3.20GHz, instruction set [SSE2|AVX|AVX2|AVX512]
Thread count: 24 physical cores, 48 logical processors, using up to 24 threads

Optimize a model with 5700 rows, 2726 columns and 15538200 nonzeros
Model fingerprint: 0xd3abcb8b
Coefficient statistics:
  Matrix range     [3e-13, 6e-04]
  Objective range  [4e-03, 1e+00]
  Bounds range     [1e+00, 1e+00]
  RHS range        [1e-05, 1e-05]
Presolve time: 5.24s
Presolved: 2726 rows, 8426 columns, 15540926 nonzeros
Error: invalid user locale; possible fix is to set the system environment
       variable 'LC_ALL' to a valid locale (e.g., to 'C')
Ordering time: 0.04s

Barrier statistics:
 AA' NZ     : 3.714e+06
 Factor NZ  : 3.717e+06 (roughly 34 MB of memory)
 Factor Ops : 6.756e+09 (less than 1 second per iteration)
 Threads    : 24

                  Objective                Residual
Iter       Primal          Dual         Primal    Dual     Compl     Time
   0   5.44819782e+03  0.00000000e+00  0.00e+00 0.00e+00  9.46e-01     7s
   1   2.85255941e+03  6.54762378e+02  0.00e+00 1.71e-01  3.47e-01     8s
   2   2.04534285e+03  1.27614305e+03  0.00e+00 6.33e-02  1.17e-01     8s
   3   1.72690715e+03  1.40997590e+03  0.00e+00 2.56e-02  4.38e-02     8s
   4   1.67794266e+03  1.44501807e+03  0.00e+00 1.58e-02  2.96e-02     9s
   5   1.65576082e+03  1.44935573e+03  0.00e+00 1.41e-02  2.59e-02     9s
   6   1.58820636e+03  1.45975496e+03  0.00e+00 1.06e-02  1.63e-02     9s
   7   1.56401683e+03  1.46527127e+03  0.00e+00 8.11e-03  1.24e-02    10s
   8   1.55160002e+03  1.46626459e+03  0.00e+00 7.41e-03  1.09e-02    10s
   9   1.53908484e+03  1.46741722e+03  0.00e+00 6.42e-03  9.38e-03    10s
  10   1.52690970e+03  1.46808783e+03  0.00e+00 5.51e-03  7.86e-03    10s
  11   1.52235503e+03  1.46811999e+03  0.00e+00 5.11e-03  7.28e-03    11s
  12   1.51866291e+03  1.46808706e+03  0.00e+00 4.80e-03  6.80e-03    11s
  13   1.51374745e+03  1.46800696e+03  0.00e+00 4.48e-03  6.20e-03    11s
  14   1.49884047e+03  1.46745225e+03  0.00e+00 3.32e-03  4.48e-03    12s
  15   1.48922090e+03  1.46720365e+03  0.00e+00 2.75e-03  3.41e-03    12s
  16   1.48439482e+03  1.46692979e+03  0.00e+00 2.49e-03  2.91e-03    13s
  17   1.48093702e+03  1.46612286e+03  0.00e+00 1.93e-03  2.41e-03    13s
  18   1.47861816e+03  1.46582283e+03  0.00e+00 1.73e-03  2.14e-03    13s
  19   1.47579602e+03  1.46529236e+03  0.00e+00 1.41e-03  1.76e-03    14s
  20   1.47427325e+03  1.46503910e+03  0.00e+00 1.25e-03  1.56e-03    14s
  21   1.46803278e+03  1.46448336e+03  0.00e+00 8.90e-04  8.47e-04    14s
  22   1.46617852e+03  1.46430268e+03  0.00e+00 7.38e-04  6.12e-04    15s
  23   1.46508431e+03  1.46397893e+03  0.00e+00 4.93e-04  4.00e-04    15s
  24   1.46423278e+03  1.46374836e+03  0.00e+00 3.83e-04  2.81e-04    16s
  25   1.46398382e+03  1.46352261e+03  0.00e+00 2.67e-04  2.07e-04    16s
  26   1.46358287e+03  1.46338095e+03  0.00e+00 1.97e-04  1.41e-04    16s
  27   1.46330008e+03  1.46325887e+03  0.00e+00 1.26e-04  8.30e-05    17s
  28   1.46316353e+03  1.46313044e+03  0.00e+00 6.14e-05  4.19e-05    17s
  29   1.46310739e+03  1.46305933e+03  0.00e+00 3.19e-05  2.45e-05    18s
  30   1.46306127e+03  1.46303123e+03  0.00e+00 2.22e-05  1.69e-05    18s
  31   1.46301994e+03  1.46300247e+03  0.00e+00 1.23e-05  9.43e-06    18s
  32   1.46300442e+03  1.46297878e+03  6.22e-07 4.01e-06  4.86e-06    19s
  33   1.46298201e+03  1.46297349e+03  6.33e-07 2.09e-06  2.10e-06    19s
  34   1.46298137e+03  1.46296963e+03  8.19e-07 5.79e-07  1.42e-06    20s
  35   1.46298073e+03  1.46296862e+03  1.06e-06 1.85e-07  1.21e-06    21s
  36   1.46298013e+03  1.46296847e+03  1.71e-06 1.21e-07  1.13e-06    22s
  37   1.46297970e+03  1.46296829e+03  2.09e-06 4.55e-08  1.05e-06    22s
  38   1.46297960e+03  1.46296827e+03  2.96e-06 3.49e-08  1.04e-06    23s
  39   1.46297936e+03  1.46296825e+03  2.92e-06 2.86e-08  1.02e-06    23s
  40   1.46297904e+03  1.46296820e+03  4.05e-06 8.86e-09  9.82e-07    24s
  41   1.46297864e+03  1.46296820e+03  6.02e-06 4.71e-09  9.45e-07    24s
  42   1.46297831e+03  1.46296818e+03  8.92e-06 3.31e-09  9.15e-07    25s
  43   1.46297824e+03  1.46296818e+03  1.06e-05 3.17e-09  9.07e-07    25s
  44   1.46297773e+03  1.46296819e+03  8.17e-06 2.30e-09  8.62e-07    26s
  45   1.46297460e+03  1.46296813e+03  5.60e-06 3.94e-13  5.83e-07    27s
  46   1.46297417e+03  1.46296816e+03  8.35e-06 4.83e-13  5.40e-07    27s
  47   1.46297083e+03  1.46296820e+03  1.21e-05 4.94e-13  2.36e-07    28s
  48   1.46297051e+03  1.46296819e+03  1.40e-05 5.24e-13  1.96e-07    29s
  49   1.46296951e+03  1.46296819e+03  2.54e-05 6.99e-13  1.26e-07    29s
  50   1.46296844e+03  1.46296820e+03  1.05e-05 4.47e-13  1.41e-08    30s
  51   1.46296835e+03  1.46296820e+03  1.18e-05 3.36e-13  1.17e-08    31s
  52   1.46296813e+03  1.46296820e+03  1.50e-05 5.17e-13  1.86e-09    31s
  53   1.46296810e+03  1.46296820e+03  1.85e-05 6.28e-13  9.24e-10    32s
  54   1.46296807e+03  1.46296820e+03  2.18e-05 3.54e-13  4.53e-11    33s

Barrier performed 54 iterations in 32.92 seconds (30.28 work units)
Sub-optimal termination - objective 1.46298073e+03

Optimization finished!
Restarting optimization for throughput iteration 1...
Gurobi Optimizer version 10.0.3 build v10.0.3rc0 (linux64)

CPU model: Intel(R) Xeon(R) Gold 6146 CPU @ 3.20GHz, instruction set [SSE2|AVX|AVX2|AVX512]
Thread count: 24 physical cores, 48 logical processors, using up to 24 threads

Optimize a model with 5700 rows, 2726 columns and 15538200 nonzeros
Model fingerprint: 0x6c8a14d8
Coefficient statistics:
  Matrix range     [3e-13, 6e-04]
  Objective range  [4e-03, 1e+00]
  Bounds range     [1e+00, 1e+00]
  RHS range        [7e-06, 7e-06]
Presolve time: 5.21s
Presolved: 2726 rows, 8426 columns, 15540926 nonzeros
Ordering time: 0.04s

Barrier statistics:
 AA' NZ     : 3.714e+06
 Factor NZ  : 3.717e+06 (roughly 34 MB of memory)
 Factor Ops : 6.756e+09 (less than 1 second per iteration)
 Threads    : 24

                  Objective                Residual
Iter       Primal          Dual         Primal    Dual     Compl     Time
   0   5.40007372e+03  0.00000000e+00  0.00e+00 0.00e+00  9.40e-01     7s
   1   2.80584723e+03  6.52444538e+02  0.00e+00 1.70e-01  3.45e-01     7s
   2   2.00243073e+03  1.29759818e+03  0.00e+00 6.36e-02  1.14e-01     8s
   3   1.69635852e+03  1.40772946e+03  0.00e+00 2.77e-02  4.52e-02     8s
   4   1.63767630e+03  1.42955493e+03  0.00e+00 2.16e-02  3.23e-02     9s
   5   1.60644942e+03  1.43786677e+03  0.00e+00 1.75e-02  2.59e-02     9s
   6   1.58891487e+03  1.44058518e+03  0.00e+00 1.62e-02  2.31e-02     9s
   7   1.55227677e+03  1.44677938e+03  0.00e+00 1.30e-02  1.75e-02    10s
   8   1.53622608e+03  1.44890193e+03  0.00e+00 1.14e-02  1.50e-02    10s
   9   1.52872742e+03  1.44932998e+03  0.00e+00 1.05e-02  1.38e-02    11s
  10   1.51918639e+03  1.44918062e+03  0.00e+00 1.01e-02  1.28e-02    11s
  11   1.51383466e+03  1.44919581e+03  0.00e+00 9.65e-03  1.22e-02    11s
  12   1.49970098e+03  1.44801308e+03  0.00e+00 8.95e-03  1.04e-02    12s
  13   1.48760534e+03  1.44775087e+03  0.00e+00 7.71e-03  8.88e-03    12s
  14   1.48389256e+03  1.44733989e+03  0.00e+00 7.14e-03  8.23e-03    12s
  15   1.48035994e+03  1.44639473e+03  0.00e+00 6.53e-03  7.61e-03    13s
  16   1.47097192e+03  1.44498085e+03  0.00e+00 5.77e-03  6.55e-03    13s
  17   1.46547174e+03  1.44360055e+03  0.00e+00 5.31e-03  5.90e-03    13s
  18   1.46274989e+03  1.44261604e+03  0.00e+00 4.95e-03  5.54e-03    14s
  19   1.45932024e+03  1.44126360e+03  0.00e+00 4.50e-03  5.07e-03    14s
  20   1.45304954e+03  1.43962359e+03  0.00e+00 3.95e-03  4.42e-03    14s
  21   1.45047536e+03  1.43929296e+03  0.00e+00 3.86e-03  4.22e-03    15s
  22   1.44259445e+03  1.43732052e+03  0.00e+00 3.37e-03  3.48e-03    15s
  23   1.44102652e+03  1.43534927e+03  0.00e+00 2.97e-03  3.19e-03    16s
  24   1.43752057e+03  1.43489730e+03  0.00e+00 2.88e-03  2.97e-03    16s
  25   1.43661151e+03  1.43332821e+03  0.00e+00 2.61e-03  2.80e-03    16s
  26   1.43475749e+03  1.43258549e+03  0.00e+00 2.49e-03  2.61e-03    17s
  27   1.43126757e+03  1.43097380e+03  0.00e+00 2.22e-03  2.28e-03    17s
  28   1.42602946e+03  1.42988884e+03  0.00e+00 2.08e-03  1.95e-03    17s
  29   1.42115094e+03  1.42888258e+03  0.00e+00 1.97e-03  1.67e-03    18s
  30   1.42048107e+03  1.42784617e+03  0.00e+00 1.84e-03  1.59e-03    18s
  31   1.41998641e+03  1.42699597e+03  0.00e+00 1.74e-03  1.53e-03    18s
  32   1.41939568e+03  1.42561880e+03  0.00e+00 1.59e-03  1.43e-03    19s
  33   1.41910332e+03  1.42420972e+03  0.00e+00 1.43e-03  1.35e-03    19s
  34   1.41667529e+03  1.42228151e+03  0.00e+00 1.26e-03  1.18e-03    19s
  35   1.41538353e+03  1.42130479e+03  0.00e+00 1.17e-03  1.08e-03    20s
  36   1.41449234e+03  1.41980926e+03  0.00e+00 1.06e-03  9.93e-04    20s
  37   1.41368539e+03  1.41924313e+03  0.00e+00 1.01e-03  9.25e-04    21s
  38   1.41324111e+03  1.41776399e+03  0.00e+00 8.76e-04  8.48e-04    21s
  39   1.41176430e+03  1.41561311e+03  0.00e+00 7.08e-04  7.06e-04    22s
  40   1.41026656e+03  1.41507556e+03  0.00e+00 6.63e-04  5.85e-04    22s
  41   1.40921511e+03  1.41368668e+03  0.00e+00 5.58e-04  4.75e-04    23s
  42   1.40864708e+03  1.41259343e+03  0.00e+00 4.77e-04  4.08e-04    23s
  43   1.40827484e+03  1.41194989e+03  0.00e+00 4.28e-04  3.60e-04    23s
  44   1.40771318e+03  1.41118469e+03  0.00e+00 3.70e-04  2.98e-04    24s
  45   1.40701732e+03  1.40982278e+03  0.00e+00 2.70e-04  2.00e-04    24s
  46   1.40666015e+03  1.40904085e+03  0.00e+00 2.13e-04  1.51e-04    25s
  47   1.40658119e+03  1.40869074e+03  0.00e+00 1.89e-04  1.35e-04    25s
  48   1.40645329e+03  1.40830170e+03  0.00e+00 1.64e-04  1.17e-04    25s
  49   1.40626851e+03  1.40767307e+03  0.00e+00 1.22e-04  8.82e-05    26s
  50   1.40619928e+03  1.40735250e+03  0.00e+00 1.01e-04  7.41e-05    26s
  51   1.40612072e+03  1.40721967e+03  0.00e+00 9.21e-05  6.40e-05    26s
  52   1.40602808e+03  1.40695429e+03  0.00e+00 7.41e-05  4.83e-05    27s
  53   1.40596594e+03  1.40633346e+03  0.00e+00 3.42e-05  2.76e-05    28s
  54   1.40591436e+03  1.40617940e+03  2.27e-06 2.43e-05  1.94e-05    29s
  55   1.40588121e+03  1.40612455e+03  1.87e-06 2.08e-05  1.51e-05    29s
  56   1.40582668e+03  1.40598972e+03  3.11e-06 1.19e-05  6.63e-06    30s
  57   1.40581128e+03  1.40584767e+03  6.22e-06 2.81e-06  1.73e-06    32s
  58   1.40581128e+03  1.40584766e+03  7.32e-06 2.81e-06  1.73e-06    33s
  59   1.40581100e+03  1.40583066e+03  1.39e-05 1.71e-06  1.27e-06    33s
  60   1.40581096e+03  1.40583063e+03  1.50e-05 1.70e-06  1.13e-06    34s
  61   1.40581088e+03  1.40582983e+03  2.23e-05 1.65e-06  1.10e-06    35s
  62   1.40581091e+03  1.40582977e+03  1.95e-05 1.65e-06  1.10e-06    36s
  63   1.40581090e+03  1.40582553e+03  3.04e-05 1.38e-06  1.02e-06    37s
  64   1.40581071e+03  1.40582436e+03  4.24e-05 1.30e-06  9.78e-07    38s
  65   1.40581078e+03  1.40582383e+03  4.95e-05 1.27e-06  9.58e-07    39s
  66   1.40581096e+03  1.40581928e+03  1.04e-04 9.60e-07  8.13e-07    40s
  67   1.40581155e+03  1.40581928e+03  9.68e-05 9.59e-07  8.12e-07    41s
  68   1.40581020e+03  1.40581842e+03  1.19e-04 9.02e-07  7.57e-07    42s
  69   1.40581020e+03  1.40581789e+03  1.20e-04 8.67e-07  7.32e-07    43s
  70   1.40581017e+03  1.40581750e+03  1.35e-04 8.41e-07  7.17e-07    43s
  71   1.40580965e+03  1.40581504e+03  1.46e-04 6.75e-07  6.04e-07    45s
  72   1.40580944e+03  1.40581503e+03  1.39e-04 6.75e-07  6.04e-07    46s
  73   1.40580956e+03  1.40581429e+03  1.36e-04 6.26e-07  5.71e-07    46s
  74   1.40580950e+03  1.40581367e+03  1.29e-04 5.84e-07  5.27e-07    47s
  75   1.40580929e+03  1.40581274e+03  1.54e-04 5.24e-07  4.84e-07    48s
  76   1.40580917e+03  1.40581246e+03  2.11e-04 5.05e-07  4.71e-07    49s
  77   1.40580904e+03  1.40581210e+03  2.12e-04 4.80e-07  4.47e-07    50s
  78   1.40580882e+03  1.40581122e+03  1.93e-04 4.21e-07  4.06e-07    51s
  79   1.40580946e+03  1.40581107e+03  1.98e-04 4.12e-07  3.96e-07    52s
  80   1.40580905e+03  1.40581093e+03  2.18e-04 4.03e-07  3.68e-07    53s
  81   1.40580906e+03  1.40581091e+03  2.19e-04 4.01e-07  3.67e-07    54s
  82   1.40580907e+03  1.40581077e+03  1.80e-04 3.93e-07  3.53e-07    55s
  83   1.40580841e+03  1.40580970e+03  1.83e-04 3.21e-07  3.06e-07    56s
  84   1.40580840e+03  1.40580968e+03  1.69e-04 3.20e-07  3.05e-07    56s
  85   1.40580858e+03  1.40580955e+03  1.68e-04 3.11e-07  2.96e-07    57s
  86   1.40580809e+03  1.40580921e+03  1.58e-04 2.89e-07  2.72e-07    58s
  87   1.40580980e+03  1.40580873e+03  2.22e-04 2.57e-07  2.46e-07    59s
  88   1.40580951e+03  1.40580865e+03  2.25e-04 2.52e-07  2.42e-07    60s
  89   1.40580923e+03  1.40580845e+03  2.29e-04 2.38e-07  2.31e-07    61s
  90   1.40580912e+03  1.40580834e+03  2.37e-04 2.31e-07  2.26e-07    61s
  91   1.40580953e+03  1.40580833e+03  2.27e-04 2.30e-07  2.25e-07    62s
  92   1.40581046e+03  1.40580832e+03  2.54e-04 2.30e-07  2.23e-07    63s
  93   1.40581029e+03  1.40580812e+03  3.69e-04 2.17e-07  2.06e-07    64s
  94   1.40581037e+03  1.40580811e+03  4.03e-04 2.16e-07  2.05e-07    65s
  95   1.40581025e+03  1.40580796e+03  4.01e-04 2.06e-07  2.01e-07    66s
  96   1.40580981e+03  1.40580781e+03  3.68e-04 1.97e-07  1.90e-07    67s
  97   1.40580921e+03  1.40580747e+03  2.34e-04 1.73e-07  1.65e-07    69s
  98   1.40580912e+03  1.40580744e+03  2.40e-04 1.72e-07  1.64e-07    70s
  99   1.40580906e+03  1.40580737e+03  2.45e-04 1.67e-07  1.60e-07    71s
 100   1.40580830e+03  1.40580719e+03  2.00e-04 1.55e-07  1.48e-07    72s
 101   1.40580752e+03  1.40580712e+03  2.31e-04 1.50e-07  1.46e-07    73s
 102   1.40580732e+03  1.40580706e+03  2.34e-04 1.46e-07  1.41e-07    73s
 103   1.40580735e+03  1.40580699e+03  2.29e-04 1.42e-07  1.38e-07    74s
 104   1.40580584e+03  1.40580681e+03  2.44e-04 1.30e-07  1.17e-07    75s
 105   1.40580605e+03  1.40580680e+03  2.36e-04 1.29e-07  1.15e-07    75s
 106   1.40580591e+03  1.40580680e+03  2.34e-04 1.29e-07  1.15e-07    76s
 107   1.40580559e+03  1.40580676e+03  2.41e-04 1.26e-07  1.12e-07    77s
 108   1.40580530e+03  1.40580674e+03  2.46e-04 1.25e-07  1.11e-07    77s
 109   1.40580513e+03  1.40580673e+03  2.56e-04 1.25e-07  1.11e-07    78s
 110   1.40580514e+03  1.40580673e+03  2.58e-04 1.24e-07  1.11e-07    79s
 111   1.40580506e+03  1.40580669e+03  2.42e-04 1.21e-07  1.07e-07    80s
 112   1.40580524e+03  1.40580618e+03  2.18e-04 8.78e-08  9.17e-08    81s
 113   1.40580517e+03  1.40580614e+03  2.27e-04 8.50e-08  9.06e-08    82s
 114   1.40580423e+03  1.40580602e+03  1.82e-04 7.77e-08  8.56e-08    83s
 115   1.40580421e+03  1.40580602e+03  1.80e-04 7.77e-08  8.56e-08    84s
 116   1.40580429e+03  1.40580599e+03  1.90e-04 7.57e-08  8.46e-08    85s
 117   1.40580434e+03  1.40580596e+03  2.32e-04 7.35e-08  8.32e-08    85s
 118   1.40580445e+03  1.40580591e+03  2.19e-04 7.06e-08  8.02e-08    86s
 119   1.40580435e+03  1.40580589e+03  2.22e-04 6.89e-08  7.90e-08    87s
 120   1.40580459e+03  1.40580586e+03  2.20e-04 6.69e-08  7.62e-08    88s
 121   1.40580506e+03  1.40580583e+03  2.13e-04 6.53e-08  7.44e-08    88s
 122   1.40580516e+03  1.40580579e+03  2.10e-04 6.25e-08  7.30e-08    89s
 123   1.40580532e+03  1.40580579e+03  2.21e-04 6.23e-08  7.27e-08    90s
 124   1.40580552e+03  1.40580566e+03  1.83e-04 5.38e-08  6.64e-08    90s
 125   1.40580551e+03  1.40580565e+03  1.80e-04 5.33e-08  6.60e-08    91s
 126   1.40580558e+03  1.40580564e+03  1.79e-04 5.24e-08  6.53e-08    92s
 127   1.40580544e+03  1.40580563e+03  1.80e-04 5.14e-08  6.42e-08    93s
 128   1.40580575e+03  1.40580561e+03  1.82e-04 5.05e-08  6.14e-08    94s
 129   1.40580523e+03  1.40580561e+03  1.75e-04 5.00e-08  5.93e-08    95s
 130   1.40580513e+03  1.40580557e+03  1.57e-04 4.78e-08  5.60e-08    95s
 131   1.40580464e+03  1.40580540e+03  1.76e-04 3.67e-08  4.80e-08    96s
 132   1.40580403e+03  1.40580540e+03  2.09e-04 3.67e-08  4.78e-08    97s
 133   1.40580370e+03  1.40580536e+03  2.05e-04 3.36e-08  4.39e-08    98s
 134   1.40580465e+03  1.40580535e+03  1.82e-04 3.29e-08  3.64e-08    98s
 135   1.40580450e+03  1.40580534e+03  1.85e-04 3.27e-08  3.63e-08    99s
 136   1.40580505e+03  1.40580534e+03  1.92e-04 3.26e-08  3.54e-08   100s
 137   1.40580472e+03  1.40580534e+03  2.11e-04 3.22e-08  3.51e-08   100s
 138   1.40580448e+03  1.40580529e+03  1.98e-04 2.88e-08  3.22e-08   101s
 139   1.40580468e+03  1.40580526e+03  1.87e-04 2.74e-08  3.03e-08   102s
 140   1.40580391e+03  1.40580525e+03  1.90e-04 2.66e-08  2.91e-08   102s
 141   1.40580395e+03  1.40580524e+03  1.89e-04 2.66e-08  2.90e-08   103s
 142   1.40580350e+03  1.40580524e+03  2.14e-04 2.63e-08  2.77e-08   104s
 143   1.40580340e+03  1.40580522e+03  1.78e-04 2.53e-08  2.54e-08   104s
 144   1.40580326e+03  1.40580521e+03  1.90e-04 2.48e-08  2.44e-08   105s
 145   1.40580328e+03  1.40580521e+03  1.91e-04 2.48e-08  2.44e-08   106s
 146   1.40580340e+03  1.40580521e+03  1.98e-04 2.47e-08  2.38e-08   107s
 147   1.40580287e+03  1.40580520e+03  1.90e-04 2.42e-08  2.25e-08   108s
 148   1.40580273e+03  1.40580520e+03  1.78e-04 2.40e-08  2.21e-08   109s
 149   1.40580255e+03  1.40580520e+03  1.65e-04 2.40e-08  2.21e-08   109s
 150   1.40580280e+03  1.40580520e+03  1.70e-04 2.36e-08  2.19e-08   110s
 151   1.40580273e+03  1.40580517e+03  1.59e-04 2.21e-08  2.10e-08   111s
 152   1.40580262e+03  1.40580513e+03  1.38e-04 1.92e-08  1.89e-08   112s
 153   1.40580251e+03  1.40580511e+03  2.24e-04 1.79e-08  1.79e-08   113s
 154   1.40580253e+03  1.40580511e+03  2.24e-04 1.79e-08  1.79e-08   114s
 155   1.40580357e+03  1.40580508e+03  2.51e-04 1.58e-08  1.52e-08   115s
 156   1.40580302e+03  1.40580507e+03  2.51e-04 1.52e-08  1.45e-08   116s
 157   1.40580292e+03  1.40580506e+03  2.49e-04 1.47e-08  1.43e-08   117s
 158   1.40580286e+03  1.40580505e+03  2.29e-04 1.42e-08  1.37e-08   118s
 159   1.40580270e+03  1.40580505e+03  2.19e-04 1.42e-08  1.37e-08   118s
 160   1.40580299e+03  1.40580505e+03  2.42e-04 1.33e-08  1.27e-08   119s
 161   1.40580323e+03  1.40580505e+03  2.41e-04 1.33e-08  1.26e-08   120s
 162   1.40580334e+03  1.40580504e+03  2.55e-04 1.33e-08  1.25e-08   121s
 163   1.40580343e+03  1.40580503e+03  2.53e-04 1.25e-08  1.19e-08   122s
 164   1.40580359e+03  1.40580502e+03  2.38e-04 1.17e-08  1.12e-08   123s
 165   1.40580325e+03  1.40580500e+03  2.46e-04 1.02e-08  9.97e-09   124s
 166   1.40580328e+03  1.40580499e+03  2.51e-04 9.83e-09  9.78e-09   125s
 167   1.40580318e+03  1.40580499e+03  2.66e-04 9.59e-09  9.65e-09   125s
 168   1.40580329e+03  1.40580499e+03  2.63e-04 9.59e-09  9.64e-09   126s
 169   1.40580363e+03  1.40580499e+03  2.38e-04 9.25e-09  9.23e-09   127s
 170   1.40580357e+03  1.40580495e+03  2.37e-04 7.22e-09  8.18e-09   128s
 171   1.40580368e+03  1.40580495e+03  2.30e-04 7.07e-09  7.94e-09   129s
 172   1.40580446e+03  1.40580493e+03  2.65e-04 6.59e-09  7.47e-09   130s
 173   1.40580343e+03  1.40580493e+03  2.89e-04 6.29e-09  6.74e-09   130s
 174   1.40580401e+03  1.40580493e+03  3.00e-04 6.28e-09  6.73e-09   131s
 175   1.40580384e+03  1.40580493e+03  3.03e-04 6.22e-09  6.59e-09   132s
 176   1.40580377e+03  1.40580492e+03  2.88e-04 5.79e-09  6.23e-09   133s
 177   1.40580380e+03  1.40580492e+03  2.84e-04 5.73e-09  6.18e-09   134s
 178   1.40580296e+03  1.40580492e+03  3.07e-04 5.71e-09  5.86e-09   134s
 179   1.40580362e+03  1.40580492e+03  3.07e-04 5.71e-09  5.86e-09   135s
 180   1.40580381e+03  1.40580492e+03  3.00e-04 5.68e-09  5.83e-09   136s
 181   1.40580368e+03  1.40580492e+03  2.64e-04 5.54e-09  5.73e-09   137s
 182   1.40580317e+03  1.40580492e+03  2.52e-04 5.54e-09  5.64e-09   138s
 183   1.40580269e+03  1.40580490e+03  2.48e-04 4.79e-09  4.91e-09   139s
 184   1.40580268e+03  1.40580490e+03  2.30e-04 4.60e-09  4.77e-09   140s
 185   1.40580275e+03  1.40580490e+03  2.14e-04 4.41e-09  4.61e-09   141s
 186   1.40580278e+03  1.40580490e+03  2.17e-04 4.41e-09  4.61e-09   142s
 187   1.40580273e+03  1.40580490e+03  2.06e-04 4.34e-09  4.33e-09   142s
 188   1.40580275e+03  1.40580490e+03  2.05e-04 4.34e-09  4.33e-09   143s
 189   1.40580291e+03  1.40580490e+03  2.10e-04 4.33e-09  4.32e-09   144s
 190   1.40580263e+03  1.40580489e+03  1.98e-04 3.50e-09  3.71e-09   145s
 191   1.40580209e+03  1.40580489e+03  2.26e-04 3.38e-09  3.58e-09   146s
 192   1.40580239e+03  1.40580489e+03  2.21e-04 3.33e-09  3.47e-09   147s
 193   1.40580325e+03  1.40580489e+03  1.95e-04 3.24e-09  2.63e-09   147s
 194   1.40580353e+03  1.40580489e+03  1.92e-04 3.11e-09  2.52e-09   148s
 195   1.40580360e+03  1.40580489e+03  1.81e-04 3.08e-09  2.45e-09   149s
 196   1.40580379e+03  1.40580489e+03  1.76e-04 2.79e-09  2.30e-09   150s
 197   1.40580414e+03  1.40580487e+03  2.03e-04 2.03e-09  1.79e-09   151s
 198   1.40580409e+03  1.40580487e+03  2.04e-04 1.99e-09  1.80e-09   152s
 199   1.40580389e+03  1.40580487e+03  2.06e-04 1.87e-09  1.67e-09   152s
 200   1.40580401e+03  1.40580487e+03  2.09e-04 1.87e-09  1.67e-09   153s
 201   1.40580401e+03  1.40580487e+03  2.08e-04 1.86e-09  1.66e-09   154s
 202   1.40580436e+03  1.40580487e+03  1.63e-04 1.59e-09  1.36e-09   156s
 203   1.40580439e+03  1.40580487e+03  1.66e-04 1.59e-09  1.37e-09   157s
 204   1.40580428e+03  1.40580487e+03  1.69e-04 1.59e-09  1.37e-09   158s
 205   1.40580361e+03  1.40580485e+03  1.75e-04 1.11e-09  1.09e-09   160s
 206   1.40580365e+03  1.40580485e+03  1.70e-04 9.17e-10  9.61e-10   160s
 207   1.40580351e+03  1.40580485e+03  1.70e-04 9.10e-10  9.46e-10   161s
 208   1.40580323e+03  1.40580485e+03  1.86e-04 8.33e-10  8.26e-10   163s
 209   1.40580331e+03  1.40580485e+03  1.85e-04 8.00e-10  7.95e-10   164s
 210   1.40580336e+03  1.40580486e+03  1.84e-04 7.93e-10  7.98e-10   165s
 211   1.40580336e+03  1.40580486e+03  1.80e-04 7.13e-10  7.29e-10   167s
 212   1.40580337e+03  1.40580486e+03  1.78e-04 6.71e-10  7.05e-10   169s
 213   1.40580339e+03  1.40580486e+03  1.87e-04 6.64e-10  6.42e-10   171s
 214   1.40580330e+03  1.40580486e+03  1.58e-04 6.57e-10  6.01e-10   171s
 215   1.40580321e+03  1.40580486e+03  1.62e-04 6.47e-10  5.94e-10   172s
 216   1.40580263e+03  1.40580485e+03  1.50e-04 5.86e-10  5.77e-10   173s
 217   1.40580232e+03  1.40580485e+03  1.54e-04 5.76e-10  5.68e-10   174s
 218   1.40580199e+03  1.40580486e+03  2.03e-04 5.69e-10  5.52e-10   175s
 219   1.40580202e+03  1.40580485e+03  1.98e-04 5.47e-10  5.27e-10   176s
 220   1.40580232e+03  1.40580485e+03  1.90e-04 5.24e-10  5.15e-10   177s
 221   1.40580273e+03  1.40580485e+03  1.90e-04 4.86e-10  4.77e-10   177s
 222   1.40580274e+03  1.40580485e+03  1.92e-04 4.63e-10  4.61e-10   178s
 223   1.40580285e+03  1.40580485e+03  1.96e-04 4.61e-10  4.58e-10   179s
 224   1.40580287e+03  1.40580485e+03  1.87e-04 4.44e-10  4.28e-10   180s
 225   1.40580285e+03  1.40580485e+03  1.97e-04 4.27e-10  4.17e-10   180s
 226   1.40580287e+03  1.40580485e+03  1.96e-04 4.25e-10  4.13e-10   181s
 227   1.40580304e+03  1.40580485e+03  3.04e-04 4.07e-10  3.64e-10   182s
 228   1.40580270e+03  1.40580485e+03  2.97e-04 4.07e-10  3.59e-10   182s
 229   1.40580279e+03  1.40580485e+03  2.87e-04 3.98e-10  3.51e-10   183s
 230   1.40580263e+03  1.40580485e+03  2.48e-04 3.75e-10  3.38e-10   184s
 231   1.40580275e+03  1.40580485e+03  2.49e-04 3.72e-10  3.35e-10   185s
 232   1.40580260e+03  1.40580484e+03  2.37e-04 3.59e-10  3.24e-10   185s
 233   1.40580262e+03  1.40580485e+03  2.13e-04 3.54e-10  3.15e-10   186s
 234   1.40580255e+03  1.40580485e+03  2.13e-04 3.53e-10  3.14e-10   187s
 235   1.40580255e+03  1.40580484e+03  2.11e-04 3.48e-10  3.10e-10   187s
 236   1.40580257e+03  1.40580484e+03  2.09e-04 3.46e-10  3.09e-10   188s
 237   1.40580265e+03  1.40580484e+03  2.13e-04 3.19e-10  2.88e-10   189s
 238   1.40580265e+03  1.40580484e+03  2.13e-04 3.19e-10  2.88e-10   189s
 239   1.40580272e+03  1.40580484e+03  2.09e-04 3.14e-10  2.84e-10   190s
 240   1.40580156e+03  1.40580484e+03  2.48e-04 3.04e-10  2.79e-10   191s
 241   1.40580178e+03  1.40580484e+03  2.45e-04 2.74e-10  2.53e-10   192s
 242   1.40580230e+03  1.40580484e+03  2.37e-04 2.64e-10  2.43e-10   193s
 243   1.40580233e+03  1.40580484e+03  2.39e-04 2.64e-10  2.39e-10   193s
 244   1.40580240e+03  1.40580484e+03  2.31e-04 2.62e-10  2.38e-10   194s
 245   1.40580269e+03  1.40580484e+03  2.67e-04 2.50e-10  2.15e-10   195s
 246   1.40580282e+03  1.40580484e+03  2.59e-04 2.48e-10  2.26e-10   196s
 247   1.40580265e+03  1.40580484e+03  2.79e-04 2.39e-10  2.20e-10   197s
 248   1.40580253e+03  1.40580484e+03  2.75e-04 2.36e-10  2.17e-10   197s
 249   1.40580256e+03  1.40580484e+03  2.73e-04 2.28e-10  2.16e-10   200s
 250   1.40580385e+03  1.40580484e+03  2.68e-04 2.13e-10  1.90e-10   200s
 251   1.40580362e+03  1.40580484e+03  2.57e-04 2.13e-10  1.91e-10   201s
 252   1.40580373e+03  1.40580484e+03  2.37e-04 1.99e-10  2.01e-10   202s
 253   1.40580374e+03  1.40580484e+03  2.38e-04 1.99e-10  2.01e-10   202s
 254   1.40580423e+03  1.40580484e+03  2.14e-04 1.88e-10  1.89e-10   203s
 255   1.40580430e+03  1.40580484e+03  2.05e-04 1.81e-10  1.84e-10   204s
 256   1.40580477e+03  1.40580484e+03  1.99e-04 1.70e-10  1.84e-10   206s
 257   1.40580481e+03  1.40580484e+03  2.03e-04 1.70e-10  1.85e-10   206s
 258   1.40580482e+03  1.40580484e+03  2.06e-04 1.69e-10  1.81e-10   207s
 259   1.40580551e+03  1.40580483e+03  3.26e-04 1.20e-10  2.20e-10   209s

Barrier performed 259 iterations in 208.58 seconds (164.45 work units)
Sub-optimal termination - objective 1.40581100e+03

/user/bnickson/GitHub/LUVex_TelAps/aplc_optimization/surveys/usort_offaxis_survey_N0128_telserv3/FPM40_IWA39/drivers/07_USORT_N128_FPM400M0150_IWA0390_OWA01400_C10_BW15_Nlam5_LS_ID_ID00_ODOD09_ls_0_ovsamp16_N.py:102: DeprecationWarning: circular_aperture is deprecated. Its new name is make_circular_aperture.
  dark_zone_mask = circular_aperture(img_owa * 2)(focal_grid) - circular_aperture(img_iwa * 2)(focal_grid)
/user/bnickson/GitHub/LUVex_TelAps/aplc_optimization/surveys/usort_offaxis_survey_N0128_telserv3/FPM40_IWA39/drivers/07_USORT_N128_FPM400M0150_IWA0390_OWA01400_C10_BW15_Nlam5_LS_ID_ID00_ODOD09_ls_0_ovsamp16_N.py:110: DeprecationWarning: circular_aperture is deprecated. Its new name is make_circular_aperture.
  focal_plane_mask = 1 - evaluate_supersampled(circular_aperture(2 * fpm_radius), focal_mask_grid, 8)
WARNING: VerifyWarning: Keyword name 'LS_ALIGN_TOl' is greater than 8 characters or contains characters not allowed by the FITS standard; a HIERARCH card will be created. [astropy.io.fits.card]
WARNING: VerifyWarning: Keyword name 'LS_NUM_STOPS' is greater than 8 characters or contains characters not allowed by the FITS standard; a HIERARCH card will be created. [astropy.io.fits.card]
WARNING: VerifyWarning: Keyword name 'PROG_START' is greater than 8 characters or contains characters not allowed by the FITS standard; a HIERARCH card will be created. [astropy.io.fits.card]
WARNING: VerifyWarning: Keyword name 'PROG_EDGE' is greater than 8 characters or contains characters not allowed by the FITS standard; a HIERARCH card will be created. [astropy.io.fits.card]
WARNING: VerifyWarning: Keyword name 'THRPT_ITER' is greater than 8 characters or contains characters not allowed by the FITS standard; a HIERARCH card will be created. [astropy.io.fits.card]
WARNING: VerifyWarning: Keyword name 'THRPT_ESTIM' is greater than 8 characters or contains characters not allowed by the FITS standard; a HIERARCH card will be created. [astropy.io.fits.card]
WARNING: VerifyWarning: Keyword name 'MAX_THRPT' is greater than 8 characters or contains characters not allowed by the FITS standard; a HIERARCH card will be created. [astropy.io.fits.card]
WARNING: VerifyWarning: Keyword name 'SLV_THRDS' is greater than 8 characters or contains characters not allowed by the FITS standard; a HIERARCH card will be created. [astropy.io.fits.card]
WARNING: VerifyWarning: Keyword name 'SLV_XOVER' is greater than 8 characters or contains characters not allowed by the FITS standard; a HIERARCH card will be created. [astropy.io.fits.card]
Optimization finished!
